\* Problem: Unknown *\

Maximize
 obj: + xp_0_0 + xp_0_1 + xp_0_2 + xp_0_3 + xp_0_4 + xp_0_5 + xp_1_0
 + xp_1_1 + xp_1_2 + xp_2_0 + xp_2_1 + xp_2_2 + xp_2_3 + xp_2_4 + xp_3_0
 + xp_3_1 + xp_3_2 + xp_3_3 + xp_4_0 + xp_4_1 + xp_5_0 + xp_5_1 + xp_6_0
 + xp_6_1 + xp_6_2 + xp_7_0 + xp_7_1 + xp_8_0 + xp_8_1 + xp_9_0
 + xp_10_0 + xp_11_0 + xp_11_1 + xp_11_2 + xp_11_3 + xp_12_0 + xp_13_0
 + xp_13_1 + xp_14_0 + xp_14_1 + xp_15_0 + xp_16_0 + xp_16_1 + xp_17_0
 + xp_17_1 + xp_17_2 + xp_17_3 + xp_17_4 + xp_17_5 + xp_17_6 + xp_18_0
 + xp_18_1 + xp_18_2 + xp_18_3 + xp_18_4 + xp_18_5 + xp_19_0 + xp_19_1
 + xp_19_2 + xp_19_3 + xp_19_4 + xp_19_5 + xp_20_0 + xp_20_1 + xp_20_2
 + xp_20_3 + xp_20_4 + xp_21_0 + xp_21_1 + xp_21_2 + xp_21_3 + xp_22_0
 + xp_22_1 + xp_22_2 + xp_22_3 + xp_22_4 + xp_22_5 + xp_22_6 + xp_23_0
 + xp_23_1 + xp_23_2 + xp_23_3

Subject To
 r_1: 0 xp_0_0 <= 29.4574468085106
 r_2: + xp_23_2 + xp_22_2 + xp_18_4 + xp_18_3 + xp_2_3
 <= 28.4612068965517
 r_3: + xp_21_2 + xp_18_5 + xp_18_2 + xp_6_1 <= 30
 r_4: + xp_17_1 + xp_15_0 <= 30
 r_5: + xp_18_0 <= 27.7826086956522
 r_6: + xp_18_1 <= 29.7154017857143
 r_7: + xp_20_4 + xp_20_3 <= 29.4574468085106
 r_8: + xp_23_3 + xp_22_3 + xp_11_2 + xp_5_1 + xp_3_3 + xp_3_2 + xp_2_2
 <= 28.4612068965517
 r_9: + xp_11_1 + xp_6_2 + xp_3_1 <= 29.7154017857143
 r_10: + xp_17_4 + xp_3_0 <= 29.7154017857143
 r_11: + xp_18_5 + xp_18_1 + xp_11_3 <= 27.7826086956522
 r_12: + xp_11_0 <= 29.7154017857143
 r_13: 0 xp_0_0 <= 29.7154017857143
 r_14: + xp_19_2 + xp_14_0 + xp_0_5 + xp_0_1 <= 28.4612068965517
 r_15: + xp_21_0 <= 29.4574468085106
 r_16: + xp_22_1 + xp_21_1 + xp_19_5 + xp_0_3 + xp_0_2
 <= 29.4574468085106
 r_17: + xp_0_0 <= 27.7826086956522
 r_18: + xp_21_2 + xp_4_0 <= 29.4574468085106
 r_19: + xp_19_0 <= 29.4574468085106
 r_20: + xp_21_3 + xp_19_4 + xp_19_3 + xp_19_1 + xp_14_1 + xp_4_1
 + xp_0_4 <= 29.4574468085106
 r_21: + xp_20_1 <= 28.4612068965517
 r_22: + xp_7_1 <= 28.4612068965517
 r_23: + xp_23_3 + xp_22_4 + xp_22_3 + xp_22_2 + xp_3_3
 <= 28.4612068965517
 r_24: + xp_23_2 + xp_18_4 + xp_17_3 + xp_3_2 + xp_0_5
 <= 28.4612068965517
 r_25: 0 xp_0_0 <= 28.4612068965517
 r_26: + xp_18_3 + xp_0_4 + xp_0_1 <= 27.7826086956522
 r_27: + xp_11_2 + xp_4_1 <= 28.4612068965517
 r_28: + xp_20_3 + xp_19_3 + xp_19_2 <= 28.4612068965517
 r_29: + xp_20_2 <= 29.4574468085106
 r_30: + xp_2_0 <= 28.4612068965517
 r_31: + xp_18_2 + xp_6_2 + xp_6_1 + xp_3_1 + xp_2_4 <= 30
 r_32: + xp_2_1 <= 30
 r_33: + xp_11_1 + xp_2_3 <= 30
 r_34: + xp_19_4 + xp_18_5 + xp_2_2 <= 29.7154017857143
 r_35: 0 xp_0_0 <= 29.4574468085106
 r_36: + xp_9_0 <= 28.4612068965517
 r_37: + xp_21_1 + xp_13_1 + xp_8_1 <= 30
 r_38: + xp_23_3 + xp_1_1 <= 30
 r_39: + xp_19_5 + xp_17_2 + xp_3_3 + xp_0_3 <= 30
 r_40: + xp_0_2 <= 27.7826086956522
 r_41: + xp_12_0 + xp_2_4 <= 28.4612068965517
 r_42: + xp_21_1 <= 30
 r_43: + xp_22_5 + xp_16_0 <= 30
 r_44: + xp_23_2 + xp_23_1 + xp_22_6 + xp_16_1 + xp_1_2 <= 30
 r_45: + xp_17_6 + xp_17_3 + xp_3_2 + xp_3_1 <= 30
 r_46: + xp_18_4 + xp_18_2 + xp_0_5 <= 27.7826086956522
 r_47: + xp_22_6 + xp_16_1 + xp_13_1 <= 30
 r_48: + xp_13_0 <= 30
 r_49: + xp_17_5 <= 30
 r_50: 0 xp_0_0 <= 27.7826086956522
 r_51: + xp_8_1 + xp_1_1 <= 30
 r_52: + xp_8_0 + xp_1_2 <= 30
 r_53: + xp_1_0 <= 30
 r_54: + xp_0_3 <= 27.7826086956522
 r_55: 0 xp_0_0 <= 30
 r_56: + xp_19_5 <= 29.7154017857143
 r_57: + xp_22_1 <= 27.7826086956522
 r_58: + xp_22_4 + xp_17_3 + xp_5_0 <= 27.7826086956522
 r_59: + xp_22_0 + xp_17_2 <= 27.7826086956522
 r_60: + xp_23_1 + xp_22_6 + xp_22_5 + xp_17_6 + xp_6_0
 <= 27.7826086956522
 r_61: + xp_23_0 + xp_17_5 <= 27.7826086956522
 r_62: + xp_17_0 <= 27.7826086956522
 r_63: + xp_23_2 + xp_22_2 + xp_17_1 + xp_11_3 + xp_6_1
 <= 27.7826086956522
 r_64: + xp_23_3 + xp_22_3 + xp_17_4 + xp_6_2 + xp_5_1
 <= 27.7826086956522
 r_65: + xp_20_3 + xp_20_1 + xp_19_3 + xp_14_1 + xp_7_1 + xp_4_1
 + xp_2_1 + xp_0_4 <= 28.4612068965517
 r_66: + xp_21_3 + xp_20_2 + xp_19_4 + xp_7_0 <= 30
 r_67: + xp_20_4 + xp_19_1 + xp_10_0 <= 29.7154017857143
 r_68: + xp_20_0 <= 29.4574468085106

Bounds
 0 <= xp_0_0 <= 28.8011250207351
 0 <= xp_0_1 <= 9.98138995189447
 0 <= xp_0_2 <= 13.3271382367578
 0 <= xp_0_3 <= 7.13754352316683
 0 <= xp_0_4 <= 0.947948809575881
 0 <= xp_0_5 <= 4.04274616637135
 0 <= xp_1_0 <= 19.9814043942821
 0 <= xp_1_1 <= 15.0836399933648
 0 <= xp_1_2 <= 0.901483522060954
 0 <= xp_2_0 <= 21.9516699939177
 0 <= xp_2_1 <= 0.845721463286213
 0 <= xp_2_2 <= 3.09479735679547
 0 <= xp_2_3 <= 8.72675910344958
 0 <= xp_2_4 <= 0.845721463286213
 0 <= xp_3_0 <= 23.9312261752183
 0 <= xp_3_1 <= 7.89032822182847
 0 <= xp_3_2 <= 0.566911169412509
 0 <= xp_3_3 <= 0.566911169412509
 0 <= xp_4_0 <= 23.7918117438894
 0 <= xp_4_1 <= 2.97397646798618
 0 <= xp_5_0 <= 23.7918117438894
 0 <= xp_5_1 <= 2.97397646798618
 0 <= xp_6_0 <= 13.3828941059378
 0 <= xp_6_1 <= 5.35315764237512
 0 <= xp_6_2 <= 5.35315764237512
 0 <= xp_7_0 <= 17.9553829254665
 0 <= xp_7_1 <= 5.13010940727616
 0 <= xp_8_0 <= 18.4386541015143
 0 <= xp_8_1 <= 2.30483176268929
 0 <= xp_9_0 <= 19.2379102772856
 0 <= xp_10_0 <= 19.2379102772856
 0 <= xp_11_0 <= 27.8531762111593
 0 <= xp_11_1 <= 9.28439207038642
 0 <= xp_11_2 <= 12.3791894271819
 0 <= xp_11_3 <= 6.18959471359095
 0 <= xp_12_0 <= 18.066907043016
 0 <= xp_13_0 <= 13.6617043998115
 0 <= xp_13_1 <= 3.90334411423186
 0 <= xp_14_0 <= 13.0111470474395
 0 <= xp_14_1 <= 3.71747058498272
 0 <= xp_15_0 <= 16.561331456098
 0 <= xp_16_0 <= 14.1263882229343
 0 <= xp_16_1 <= 1.76579852786679
 0 <= xp_17_0 <= 27.8810417665598
 0 <= xp_17_1 <= 5.16728411312598
 0 <= xp_17_2 <= 4.14497351266102
 0 <= xp_17_3 <= 2.07248675633051
 0 <= xp_17_4 <= 2.07248675633051
 0 <= xp_17_5 <= 3.09479735679547
 0 <= xp_17_6 <= 2.07248675633051
 0 <= xp_18_0 <= 22.8717408689036
 0 <= xp_18_1 <= 14.2286279484134
 0 <= xp_18_2 <= 1.84943852123155
 0 <= xp_18_3 <= 1.84943852123155
 0 <= xp_18_4 <= 1.84943852123155
 0 <= xp_18_5 <= 1.84943852123155
 0 <= xp_19_0 <= 29.6468526736161
 0 <= xp_19_1 <= 5.38102938737042
 0 <= xp_19_2 <= 1.79367646245681
 0 <= xp_19_3 <= 3.58735292491361
 0 <= xp_19_4 <= 1.79367646245681
 0 <= xp_19_5 <= 1.79367646245681
 0 <= xp_20_0 <= 28.1598582500283
 0 <= xp_20_1 <= 6.49627675245995
 0 <= xp_20_2 <= 5.10221909349672
 0 <= xp_20_3 <= 1.70073969783224
 0 <= xp_20_4 <= 1.70073969783224
 0 <= xp_21_0 <= 29.2472153013384
 0 <= xp_21_1 <= 4.48883644697457
 0 <= xp_21_2 <= 6.08735498811185
 0 <= xp_21_3 <= 1.49627881565819
 0 <= xp_22_0 <= 23.8104052864091
 0 <= xp_22_1 <= 1.31040528640905
 0 <= xp_22_2 <= 3.09479735679547
 0 <= xp_22_3 <= 5.71560792961358
 0 <= xp_22_4 <= 1.31040528640905
 0 <= xp_22_5 <= 3.09479735679547
 0 <= xp_22_6 <= 1.31040528640905
 0 <= xp_23_0 <= 26.9052026432045
 0 <= xp_23_1 <= 7.02601321602263
 0 <= xp_23_2 <= 4.40520264320453
 0 <= xp_23_3 <= 1.31040528640905

End
